
  26    0


   0  13 2 3 4 5 6 7 8 9 11 22 23 24 25 
   9   5 21 20 19 15 12 
   2   3 18 13 10 
   1   3 17 13 10 
   9   3 15 13 12 
   8   3 16 14 13 
  10   2 14 13 
   6   2 13 12 
  10   1 10 
   7   1 12 
   7   1 14 
   8   1 26
   9   1 26
   5   1 26
   6   1 26
   1   1 26
   7   1 26
   7   1 26
  10   1 26
  10   1 26
   5   1 26
   3   1 26
   8   1 26
   2   1 26
   4   1 26
   0   0 
